9 9
0 2 100 100 4 100 4 100 100 
2 0 100 100 100 3 4 100 100 
100 100 0 2 100 100 4 3 100 
100 100 2 0 100 100 4 100 2 
4 100 100 100 0 100 100 2 100 
100 3 100 100 100 0 100 100 2 
4 4 4 4 100 100 0 100 100 
100 100 3 100 2 100 100 0 100 
100 100 100 2 100 2 100 100 0 
